jobs  (incl. supersource/sink ):	52
RESOURCES
- renewable                 : 4 R
- nonrenewable              : 2 N
- doubly constrained        : 0 D
************************************************************************
PRECEDENCE RELATIONS:
jobnr.    #modes  #successors   successors
1	1	11		2 3 4 5 6 7 8 9 10 11 14 
2	6	7		36 30 28 25 22 20 15 
3	6	8		36 28 26 25 21 20 19 17 
4	6	7		36 32 28 27 24 17 16 
5	6	5		30 27 24 21 13 
6	6	5		30 26 18 17 15 
7	6	6		40 28 24 22 21 20 
8	6	4		35 32 30 12 
9	6	8		40 36 32 29 27 25 24 21 
10	6	10		40 37 35 32 29 27 26 25 24 23 
11	6	7		40 36 28 26 25 22 20 
12	6	8		40 37 36 29 27 26 24 23 
13	6	5		37 36 32 25 17 
14	6	8		37 36 32 31 29 27 25 23 
15	6	5		40 31 29 27 21 
16	6	4		40 31 25 21 
17	6	7		51 48 40 39 33 31 29 
18	6	5		50 37 31 28 25 
19	6	6		51 50 48 39 31 27 
20	6	5		50 39 37 29 27 
21	6	4		39 37 35 23 
22	6	4		51 32 31 27 
23	6	7		51 50 48 47 46 42 34 
24	6	3		48 33 31 
25	6	5		48 47 46 39 34 
26	6	5		49 48 47 39 34 
27	6	4		47 46 42 34 
28	6	7		51 49 46 45 43 42 38 
29	6	3		49 46 34 
30	6	2		51 33 
31	6	5		49 47 45 43 38 
32	6	5		48 47 44 41 39 
33	6	5		50 44 43 42 41 
34	6	4		45 44 43 38 
35	6	4		47 46 44 41 
36	6	4		46 45 43 42 
37	6	3		48 46 41 
38	6	1		41 
39	6	1		42 
40	6	1		42 
41	6	1		52 
42	6	1		52 
43	6	1		52 
44	6	1		52 
45	6	1		52 
46	6	1		52 
47	6	1		52 
48	6	1		52 
49	6	1		52 
50	6	1		52 
51	6	1		52 
52	1	0		
************************************************************************
REQUESTS/DURATIONS
jobnr.	mode	dur	R1	R2	R3	R4	N1	N2	
------------------------------------------------------------------------
1	1	0	0	0	0	0	0	0	
2	1	5	1	1	5	5	20	29	
	2	10	1	1	4	4	18	26	
	3	15	1	1	4	4	16	24	
	4	16	1	1	4	4	15	23	
	5	18	1	1	4	4	12	21	
	6	27	1	1	4	4	12	20	
3	1	3	4	2	3	5	15	15	
	2	4	3	2	2	4	13	14	
	3	5	3	2	2	4	12	13	
	4	6	3	2	1	3	11	9	
	5	7	3	2	1	3	10	7	
	6	17	3	2	1	3	8	6	
4	1	1	3	2	2	3	27	20	
	2	4	3	1	1	2	27	17	
	3	6	3	1	1	2	27	15	
	4	11	2	1	1	2	27	12	
	5	16	2	1	1	2	27	10	
	6	20	2	1	1	2	27	6	
5	1	11	3	4	1	3	23	26	
	2	12	2	4	1	2	22	22	
	3	13	2	4	1	2	22	20	
	4	19	2	4	1	2	22	19	
	5	24	2	4	1	1	20	16	
	6	29	2	4	1	1	20	14	
6	1	1	2	5	4	2	14	17	
	2	3	1	4	4	2	14	15	
	3	8	1	3	4	2	12	15	
	4	22	1	3	3	1	12	14	
	5	23	1	3	3	1	11	12	
	6	30	1	2	3	1	9	10	
7	1	2	4	3	3	5	28	23	
	2	4	4	3	3	4	28	23	
	3	13	3	3	3	4	28	21	
	4	18	3	2	2	4	28	21	
	5	21	2	1	2	3	28	18	
	6	30	1	1	2	3	28	18	
8	1	1	1	3	3	3	16	17	
	2	2	1	2	3	2	12	14	
	3	12	1	2	3	2	12	10	
	4	16	1	2	2	2	10	9	
	5	23	1	1	2	2	4	4	
	6	25	1	1	2	2	3	4	
9	1	3	3	4	4	3	13	11	
	2	14	2	3	3	2	11	10	
	3	19	2	3	3	2	9	10	
	4	22	2	3	2	2	8	9	
	5	28	2	3	2	2	7	8	
	6	29	2	3	2	2	5	8	
10	1	3	3	2	4	4	15	15	
	2	9	2	2	4	3	13	14	
	3	11	2	2	4	3	12	13	
	4	12	2	1	4	2	10	12	
	5	27	2	1	3	2	10	10	
	6	28	2	1	3	2	9	8	
11	1	11	2	3	3	4	17	23	
	2	12	2	3	2	4	17	22	
	3	15	2	2	2	4	16	21	
	4	16	2	2	2	4	16	20	
	5	22	2	1	2	3	14	19	
	6	24	2	1	2	3	14	17	
12	1	15	4	3	3	4	24	24	
	2	16	3	3	3	3	20	20	
	3	17	3	3	3	3	18	18	
	4	18	2	2	3	2	16	18	
	5	19	1	1	3	2	10	14	
	6	20	1	1	3	2	8	14	
13	1	1	3	3	3	3	10	12	
	2	4	2	3	3	2	8	12	
	3	7	2	3	3	2	7	11	
	4	12	2	2	3	2	5	11	
	5	18	1	1	3	2	5	11	
	6	23	1	1	3	2	2	10	
14	1	1	5	2	4	4	18	25	
	2	4	4	2	3	4	15	24	
	3	11	3	2	3	3	13	19	
	4	19	3	2	2	3	11	18	
	5	20	2	2	2	2	9	14	
	6	21	1	2	1	2	7	12	
15	1	8	1	4	5	2	11	25	
	2	12	1	3	5	2	10	23	
	3	16	1	3	5	2	9	22	
	4	21	1	2	5	2	8	22	
	5	22	1	2	5	2	7	21	
	6	27	1	2	5	2	7	20	
16	1	4	4	4	3	4	20	29	
	2	5	3	3	3	3	20	28	
	3	7	3	3	3	3	19	28	
	4	11	2	3	3	3	17	28	
	5	20	1	2	2	3	16	28	
	6	29	1	2	2	3	15	28	
17	1	5	2	1	5	5	14	13	
	2	6	2	1	4	5	11	11	
	3	8	2	1	4	5	11	10	
	4	10	1	1	3	5	8	7	
	5	19	1	1	3	5	8	6	
	6	26	1	1	2	5	7	6	
18	1	2	5	4	1	5	18	28	
	2	3	5	3	1	5	17	28	
	3	15	5	3	1	5	17	27	
	4	19	5	3	1	5	16	27	
	5	21	5	3	1	5	14	25	
	6	30	5	3	1	5	13	25	
19	1	5	4	5	5	2	24	29	
	2	10	4	3	4	2	18	29	
	3	14	4	3	4	2	15	29	
	4	15	4	2	3	2	11	29	
	5	16	4	2	2	2	4	29	
	6	17	4	1	2	2	2	29	
20	1	10	4	5	4	2	27	19	
	2	15	4	4	3	1	25	18	
	3	19	4	4	3	1	24	16	
	4	20	4	3	2	1	19	14	
	5	22	4	2	2	1	18	12	
	6	30	4	2	1	1	16	11	
21	1	13	1	3	4	4	16	22	
	2	14	1	3	4	4	15	20	
	3	19	1	3	4	4	14	20	
	4	20	1	3	4	4	14	19	
	5	24	1	3	4	4	12	18	
	6	25	1	3	4	4	12	17	
22	1	4	2	5	4	4	24	22	
	2	12	1	4	4	3	23	22	
	3	15	1	4	4	3	21	20	
	4	19	1	4	4	2	21	15	
	5	20	1	4	3	1	20	14	
	6	25	1	4	3	1	18	13	
23	1	3	4	3	2	4	28	27	
	2	5	3	3	2	3	27	25	
	3	8	3	2	2	3	25	22	
	4	26	3	2	2	2	25	20	
	5	27	3	1	2	2	23	17	
	6	29	3	1	2	2	23	16	
24	1	3	2	3	5	3	24	19	
	2	7	2	3	4	3	22	18	
	3	8	2	3	4	3	16	18	
	4	13	2	2	3	3	14	16	
	5	14	1	2	3	3	10	15	
	6	30	1	2	3	3	8	14	
25	1	5	4	5	5	5	13	6	
	2	11	4	4	5	4	12	5	
	3	18	3	3	5	4	12	5	
	4	19	2	3	5	4	11	3	
	5	23	1	1	5	4	11	2	
	6	24	1	1	5	4	10	2	
26	1	5	2	4	2	1	23	8	
	2	9	1	3	2	1	22	7	
	3	12	1	3	2	1	21	7	
	4	15	1	3	2	1	20	6	
	5	16	1	3	2	1	19	5	
	6	27	1	3	2	1	18	5	
27	1	2	5	5	4	2	20	29	
	2	10	4	5	4	1	20	28	
	3	18	4	5	4	1	17	27	
	4	19	4	5	4	1	10	27	
	5	22	4	5	4	1	6	26	
	6	27	4	5	4	1	6	25	
28	1	1	4	5	3	2	18	19	
	2	4	3	4	3	2	18	19	
	3	9	3	4	3	2	18	17	
	4	15	3	4	3	2	18	15	
	5	20	3	4	3	2	18	14	
	6	25	3	4	3	2	18	13	
29	1	7	2	3	3	5	15	24	
	2	14	1	3	2	4	12	23	
	3	18	1	2	2	4	10	23	
	4	21	1	2	2	3	9	23	
	5	28	1	2	2	3	6	23	
	6	30	1	1	2	3	6	23	
30	1	14	5	3	5	3	7	14	
	2	19	5	2	4	3	7	12	
	3	21	5	2	3	3	7	12	
	4	22	5	2	3	3	7	11	
	5	23	5	1	1	3	7	9	
	6	29	5	1	1	3	7	8	
31	1	2	4	4	4	4	12	4	
	2	8	4	3	4	3	11	4	
	3	21	4	3	4	3	7	4	
	4	23	4	3	4	2	7	3	
	5	24	4	3	4	1	5	2	
	6	26	4	3	4	1	2	2	
32	1	2	3	1	3	3	19	21	
	2	4	2	1	2	2	16	19	
	3	16	2	1	2	2	15	18	
	4	19	2	1	2	2	12	16	
	5	21	1	1	2	2	8	16	
	6	24	1	1	2	2	8	13	
33	1	5	5	4	5	5	18	20	
	2	9	3	4	3	4	16	19	
	3	11	3	4	3	3	15	16	
	4	13	3	3	2	3	12	16	
	5	19	2	2	1	2	7	14	
	6	29	1	2	1	2	2	12	
34	1	4	5	5	3	5	15	22	
	2	11	4	4	2	4	12	22	
	3	14	4	3	2	3	11	19	
	4	21	3	2	2	3	10	18	
	5	25	3	1	2	1	6	15	
	6	26	3	1	2	1	4	15	
35	1	2	5	4	2	3	22	8	
	2	6	4	4	2	2	22	7	
	3	12	4	4	2	2	16	6	
	4	17	3	4	2	1	12	5	
	5	19	3	4	2	1	11	4	
	6	20	3	4	2	1	6	2	
36	1	1	3	3	5	3	17	17	
	2	3	3	2	5	2	16	14	
	3	5	3	2	5	2	16	13	
	4	8	3	2	5	2	16	11	
	5	17	3	2	5	1	15	11	
	6	20	3	2	5	1	15	10	
37	1	12	3	3	4	4	24	29	
	2	17	2	2	4	3	20	27	
	3	20	2	2	4	3	17	24	
	4	21	1	1	4	2	14	20	
	5	22	1	1	3	2	9	18	
	6	23	1	1	3	2	2	16	
38	1	5	5	5	4	5	18	16	
	2	13	4	4	3	4	16	13	
	3	19	4	4	3	4	16	12	
	4	24	4	4	2	3	15	8	
	5	26	3	4	2	2	13	7	
	6	28	3	4	2	2	12	4	
39	1	13	4	4	2	4	6	26	
	2	16	4	4	2	3	5	26	
	3	20	4	4	2	3	5	23	
	4	21	4	4	1	3	4	20	
	5	22	4	3	1	3	4	19	
	6	27	4	3	1	3	3	18	
40	1	9	2	3	2	4	26	14	
	2	11	2	3	2	4	23	13	
	3	13	2	3	2	4	19	12	
	4	14	2	3	2	3	16	10	
	5	22	2	2	2	3	9	9	
	6	29	2	2	2	3	7	9	
41	1	14	3	4	3	4	29	24	
	2	15	2	4	3	4	26	22	
	3	16	2	4	3	4	22	21	
	4	23	2	4	2	3	20	21	
	5	24	1	4	1	2	17	19	
	6	25	1	4	1	2	17	18	
42	1	2	3	5	3	4	27	23	
	2	5	3	4	2	4	24	23	
	3	9	3	4	2	4	20	23	
	4	12	3	3	2	4	18	22	
	5	22	3	3	2	4	14	22	
	6	29	3	2	2	4	14	22	
43	1	2	4	4	2	2	24	28	
	2	8	3	3	2	2	22	24	
	3	15	3	3	2	2	20	17	
	4	17	3	3	2	2	19	17	
	5	27	3	2	2	2	16	11	
	6	30	3	2	2	2	13	8	
44	1	5	1	3	5	3	19	18	
	2	6	1	2	4	3	18	17	
	3	11	1	2	4	3	16	17	
	4	12	1	1	3	3	15	17	
	5	21	1	1	3	3	14	16	
	6	22	1	1	2	3	12	16	
45	1	4	5	5	5	4	29	26	
	2	5	4	3	3	4	28	22	
	3	11	3	3	3	4	28	19	
	4	12	2	3	2	4	26	17	
	5	16	2	1	1	3	25	13	
	6	21	1	1	1	3	24	11	
46	1	4	2	3	3	3	30	13	
	2	5	2	2	2	3	28	12	
	3	8	2	2	2	3	26	10	
	4	12	1	2	2	2	26	10	
	5	15	1	2	1	2	23	9	
	6	26	1	2	1	2	22	7	
47	1	1	5	3	5	3	13	7	
	2	9	4	3	4	3	12	6	
	3	12	4	3	4	3	12	5	
	4	13	4	2	4	3	11	4	
	5	19	3	2	4	3	10	4	
	6	27	3	1	4	3	10	3	
48	1	9	2	3	1	5	25	24	
	2	15	2	3	1	4	20	20	
	3	20	2	3	1	3	15	16	
	4	22	2	2	1	3	11	14	
	5	25	1	2	1	2	7	11	
	6	30	1	1	1	2	2	7	
49	1	10	3	4	5	5	20	24	
	2	26	3	4	4	4	19	23	
	3	27	3	4	4	3	18	21	
	4	28	3	4	3	3	18	18	
	5	29	3	3	2	3	17	15	
	6	30	3	3	2	2	17	14	
50	1	12	1	4	2	4	16	27	
	2	13	1	3	2	4	11	23	
	3	21	1	2	2	4	10	16	
	4	25	1	2	2	4	7	12	
	5	28	1	2	2	4	5	9	
	6	29	1	1	2	4	1	7	
51	1	9	5	5	3	4	16	8	
	2	10	4	4	2	3	15	8	
	3	13	4	4	2	3	13	8	
	4	23	3	3	2	3	12	8	
	5	25	3	3	1	3	12	8	
	6	28	3	3	1	3	11	8	
52	1	0	0	0	0	0	0	0	
************************************************************************

 RESOURCE AVAILABILITIES 
	R 1	R 2	R 3	R 4	N 1	N 2
	19	21	21	23	860	898

************************************************************************
